Instances/flp1.txt
15 5
1
33 60 86 53 75
4
47 117 32 63 128
3
53 139 30 87 150
4
38 79 65 24 94
8
84 10 139 49 48
2
88 48 142 54 14
7
76 103 59 56 116
2
72 100 52 54 114
7
46 125 31 70 134
5
44 89 60 65 102
5
35 124 21 71 138
9
101 22 152 68 21
2
56 93 57 38 102
9
21 107 39 53 119
9
50 129 32 72 139
62 94
154 100
154 73
148 60
113 41
60
