flp1.lp
\ENCODING=ISO-8859-1
\Problem name: IloCplex

Minimize
 obj1: 33 x(0,0) + 60 x(0,1) + 86 x(0,2) + 53 x(0,3) + 75 x(0,4) + 47 x(1,0)
       + 117 x(1,1) + 32 x(1,2) + 63 x(1,3) + 128 x(1,4) + 53 x(2,0)
       + 139 x(2,1) + 30 x(2,2) + 87 x(2,3) + 150 x(2,4) + 38 x(3,0)
       + 79 x(3,1) + 65 x(3,2) + 24 x(3,3) + 94 x(3,4) + 84 x(4,0) + 10 x(4,1)
       + 139 x(4,2) + 49 x(4,3) + 48 x(4,4) + 88 x(5,0) + 48 x(5,1)
       + 142 x(5,2) + 54 x(5,3) + 14 x(5,4) + 76 x(6,0) + 103 x(6,1)
       + 59 x(6,2) + 56 x(6,3) + 116 x(6,4) + 72 x(7,0) + 100 x(7,1)
       + 52 x(7,2) + 54 x(7,3) + 114 x(7,4) + 46 x(8,0) + 125 x(8,1)
       + 31 x(8,2) + 70 x(8,3) + 134 x(8,4) + 44 x(9,0) + 89 x(9,1) + 60 x(9,2)
       + 65 x(9,3) + 102 x(9,4) + 35 x(10,0) + 124 x(10,1) + 21 x(10,2)
       + 71 x(10,3) + 138 x(10,4) + 101 x(11,0) + 22 x(11,1) + 152 x(11,2)
       + 68 x(11,3) + 21 x(11,4) + 56 x(12,0) + 93 x(12,1) + 57 x(12,2)
       + 38 x(12,3) + 102 x(12,4) + 21 x(13,0) + 107 x(13,1) + 39 x(13,2)
       + 53 x(13,3) + 119 x(13,4) + 50 x(14,0) + 129 x(14,1) + 32 x(14,2)
       + 72 x(14,3) + 139 x(14,4)
Subject To
 Constraint1_0:  x(0,0) + x(0,1) + x(0,2) + x(0,3) + x(0,4)  = 1
 Constraint1_1:  x(1,0) + x(1,1) + x(1,2) + x(1,3) + x(1,4)  = 1
 Constraint1_2:  x(2,0) + x(2,1) + x(2,2) + x(2,3) + x(2,4)  = 1
 Constraint1_3:  x(3,0) + x(3,1) + x(3,2) + x(3,3) + x(3,4)  = 1
 Constraint1_4:  x(4,0) + x(4,1) + x(4,2) + x(4,3) + x(4,4)  = 1
 Constraint1_5:  x(5,0) + x(5,1) + x(5,2) + x(5,3) + x(5,4)  = 1
 Constraint1_6:  x(6,0) + x(6,1) + x(6,2) + x(6,3) + x(6,4)  = 1
 Constraint1_7:  x(7,0) + x(7,1) + x(7,2) + x(7,3) + x(7,4)  = 1
 Constraint1_8:  x(8,0) + x(8,1) + x(8,2) + x(8,3) + x(8,4)  = 1
 Constraint1_9:  x(9,0) + x(9,1) + x(9,2) + x(9,3) + x(9,4)  = 1
 Constraint1_10: x(10,0) + x(10,1) + x(10,2) + x(10,3) + x(10,4)  = 1
 Constraint1_11: x(11,0) + x(11,1) + x(11,2) + x(11,3) + x(11,4)  = 1
 Constraint1_12: x(12,0) + x(12,1) + x(12,2) + x(12,3) + x(12,4)  = 1
 Constraint1_13: x(13,0) + x(13,1) + x(13,2) + x(13,3) + x(13,4)  = 1
 Constraint1_14: x(14,0) + x(14,1) + x(14,2) + x(14,3) + x(14,4)  = 1
 Constraint2_0:  - 94 y(0) + x(0,0) + 4 x(1,0) + 3 x(2,0) + 4 x(3,0) + 8 x(4,0)
                 + 2 x(5,0) + 7 x(6,0) + 2 x(7,0) + 7 x(8,0) + 5 x(9,0)
                 + 5 x(10,0) + 9 x(11,0) + 2 x(12,0) + 9 x(13,0) + 9 x(14,0)
                 <= 0
 Constraint2_1:  - 100 y(1) + x(0,1) + 4 x(1,1) + 3 x(2,1) + 4 x(3,1)
                 + 8 x(4,1) + 2 x(5,1) + 7 x(6,1) + 2 x(7,1) + 7 x(8,1)
                 + 5 x(9,1) + 5 x(10,1) + 9 x(11,1) + 2 x(12,1) + 9 x(13,1)
                 + 9 x(14,1) <= 0
 Constraint2_2:  - 73 y(2) + x(0,2) + 4 x(1,2) + 3 x(2,2) + 4 x(3,2) + 8 x(4,2)
                 + 2 x(5,2) + 7 x(6,2) + 2 x(7,2) + 7 x(8,2) + 5 x(9,2)
                 + 5 x(10,2) + 9 x(11,2) + 2 x(12,2) + 9 x(13,2) + 9 x(14,2)
                 <= 0
 Constraint2_3:  - 60 y(3) + x(0,3) + 4 x(1,3) + 3 x(2,3) + 4 x(3,3) + 8 x(4,3)
                 + 2 x(5,3) + 7 x(6,3) + 2 x(7,3) + 7 x(8,3) + 5 x(9,3)
                 + 5 x(10,3) + 9 x(11,3) + 2 x(12,3) + 9 x(13,3) + 9 x(14,3)
                 <= 0
 Constraint2_4:  - 41 y(4) + x(0,4) + 4 x(1,4) + 3 x(2,4) + 4 x(3,4) + 8 x(4,4)
                 + 2 x(5,4) + 7 x(6,4) + 2 x(7,4) + 7 x(8,4) + 5 x(9,4)
                 + 5 x(10,4) + 9 x(11,4) + 2 x(12,4) + 9 x(13,4) + 9 x(14,4)
                 <= 0
Bounds
 0 <= y(0) <= 1
 0 <= y(1) <= 1
 0 <= y(2) <= 1
 0 <= y(3) <= 1
 0 <= y(4) <= 1
 0 <= x(0,0) <= 1
 0 <= x(0,1) <= 1
 0 <= x(0,2) <= 1
 0 <= x(0,3) <= 1
 0 <= x(0,4) <= 1
 0 <= x(1,0) <= 1
 0 <= x(1,1) <= 1
 0 <= x(1,2) <= 1
 0 <= x(1,3) <= 1
 0 <= x(1,4) <= 1
 0 <= x(2,0) <= 1
 0 <= x(2,1) <= 1
 0 <= x(2,2) <= 1
 0 <= x(2,3) <= 1
 0 <= x(2,4) <= 1
 0 <= x(3,0) <= 1
 0 <= x(3,1) <= 1
 0 <= x(3,2) <= 1
 0 <= x(3,3) <= 1
 0 <= x(3,4) <= 1
 0 <= x(4,0) <= 1
 0 <= x(4,1) <= 1
 0 <= x(4,2) <= 1
 0 <= x(4,3) <= 1
 0 <= x(4,4) <= 1
 0 <= x(5,0) <= 1
 0 <= x(5,1) <= 1
 0 <= x(5,2) <= 1
 0 <= x(5,3) <= 1
 0 <= x(5,4) <= 1
 0 <= x(6,0) <= 1
 0 <= x(6,1) <= 1
 0 <= x(6,2) <= 1
 0 <= x(6,3) <= 1
 0 <= x(6,4) <= 1
 0 <= x(7,0) <= 1
 0 <= x(7,1) <= 1
 0 <= x(7,2) <= 1
 0 <= x(7,3) <= 1
 0 <= x(7,4) <= 1
 0 <= x(8,0) <= 1
 0 <= x(8,1) <= 1
 0 <= x(8,2) <= 1
 0 <= x(8,3) <= 1
 0 <= x(8,4) <= 1
 0 <= x(9,0) <= 1
 0 <= x(9,1) <= 1
 0 <= x(9,2) <= 1
 0 <= x(9,3) <= 1
 0 <= x(9,4) <= 1
 0 <= x(10,0) <= 1
 0 <= x(10,1) <= 1
 0 <= x(10,2) <= 1
 0 <= x(10,3) <= 1
 0 <= x(10,4) <= 1
 0 <= x(11,0) <= 1
 0 <= x(11,1) <= 1
 0 <= x(11,2) <= 1
 0 <= x(11,3) <= 1
 0 <= x(11,4) <= 1
 0 <= x(12,0) <= 1
 0 <= x(12,1) <= 1
 0 <= x(12,2) <= 1
 0 <= x(12,3) <= 1
 0 <= x(12,4) <= 1
 0 <= x(13,0) <= 1
 0 <= x(13,1) <= 1
 0 <= x(13,2) <= 1
 0 <= x(13,3) <= 1
 0 <= x(13,4) <= 1
 0 <= x(14,0) <= 1
 0 <= x(14,1) <= 1
 0 <= x(14,2) <= 1
 0 <= x(14,3) <= 1
 0 <= x(14,4) <= 1
Binaries
 y(0)  y(1)  y(2)  y(3)  y(4)  x(0,0)  x(0,1)  x(0,2)  x(0,3)  x(0,4)  x(1,0) 
 x(1,1)  x(1,2)  x(1,3)  x(1,4)  x(2,0)  x(2,1)  x(2,2)  x(2,3)  x(2,4) 
 x(3,0)  x(3,1)  x(3,2)  x(3,3)  x(3,4)  x(4,0)  x(4,1)  x(4,2)  x(4,3) 
 x(4,4)  x(5,0)  x(5,1)  x(5,2)  x(5,3)  x(5,4)  x(6,0)  x(6,1)  x(6,2) 
 x(6,3)  x(6,4)  x(7,0)  x(7,1)  x(7,2)  x(7,3)  x(7,4)  x(8,0)  x(8,1) 
 x(8,2)  x(8,3)  x(8,4)  x(9,0)  x(9,1)  x(9,2)  x(9,3)  x(9,4)  x(10,0) 
 x(10,1)  x(10,2)  x(10,3)  x(10,4)  x(11,0)  x(11,1)  x(11,2)  x(11,3) 
 x(11,4)  x(12,0)  x(12,1)  x(12,2)  x(12,3)  x(12,4)  x(13,0)  x(13,1) 
 x(13,2)  x(13,3)  x(13,4)  x(14,0)  x(14,1)  x(14,2)  x(14,3)  x(14,4) 
End
